% demand
num_movements = 33;
loading_factor = [1250, 2000, 1450, 1000, 1200, 1900, 1250, 1250, 1400, 1250, 1350, 1200, 1800, 850, 1050, 1250, 1600, 1050, 1950, 1250, 1000, 900, 1250, 1300, 2000, 1000, 1600, 1800, 850, 1800, 1400, 900, 1150];
pickup_time = [0, 0, 0, 0, 2, 2, 2, 2, 2, 3, 3, 3, 3, 4, 5, 5, 5, 5, 5, 6, 6, 6, 7, 7, 7, 7, 8, 8, 8, 12, 12, 12, 12];
delivery_time = [1, 2, 2, 2, 3, 3, 3, 3, 5, 5, 5, 5, 4, 5, 6, 6, 7, 6, 6, 7, 8, 7, 13, 11, 8, 8, 10, 10, 11, 13, 13, 13, 13];

% transporter definition
total_capacity = 7000;
num_decks = 3;
capacity = [3000, 1000, 3000];

% ways out of decks
num_ways_out = 1;
paths_out = array3d(decks, ways_out, decks, [
% ways out of deck d1
2, 3, 0, 

% ways out of deck d2
3, 0, 0, 

% ways out of deck d3
0, 0, 0,	

]);

